1 1 2 0
1 -1 3 0
1 4 -2 0
1 -5 -6 0
1 5 7 0
1 8 -9 0
1 -8 -10 0
1 8 5 0
1 -8 -11 0
1 8 -7 0
1 -2 12 0
1 2 -13 0
1 -2 -8 0
1 2 14 0
1 -2 15 0
1 -2 -7 0
1 -7 14 0
1 -7 16 0
1 -7 -5 0
1 17 8 0
1 17 14 0
1 17 -18 0
1 -17 -1 0
1 -17 11 0
1 11 19 0
1 -11 14 0
1 11 -20 0
1 -11 5 0
1 11 -1 0
1 15 21 0
1 15 22 0
1 -15 2 0
1 15 18 0
1 -15 7 0
1 -22 7 0
1 -16 13 0
1 16 10 0
1 16 -7 0
1 -13 -23 0
1 -13 -19 0
1 13 -24 0
1 13 6 0
1 13 7 0
1 10 -25 0
1 -10 -22 0
1 -10 -8 0
1 10 -26 0
1 10 27 0
1 -10 -15 0
1 10 28 0
1 21 29 0
1 -21 13 0
1 -21 30 0
1 -21 -31 0
1 -21 10 0
1 21 -28 0
1 6 22 0
1 -6 26 0
1 -6 32 0
1 -6 33 0
1 6 5 0
1 -9 -34 0
1 -9 13 0
1 9 -8 0
1 9 -26 0
1 9 -6 0
1 -9 -14 0
1 -9 -16 0
1 -9 -5 0
1 9 -28 0
1 -31 24 0
1 25 12 0
1 -25 -23 0
1 25 31 0
1 25 35 0
1 30 23 0
1 30 32 0
1 30 10 0
1 -30 -35 0
1 -30 36 0
1 -37 34 0
1 37 -23 0
1 37 24 0
1 37 -10 0
1 -37 35 0
1 -36 37 0
1 36 25 0
1 36 38 0
1 36 31 0
1 36 -39 0
1 24 -38 0
1 -24 31 0
1 24 36 0
1 24 40 0
1 -35 -37 0
1 -35 -25 0
1 35 -13 0
1 -35 -23 0
1 35 -38 0
1 -35 -30 0
1 35 31 0
1 35 16 0
1 -35 40 0
1 35 -41 0
1 -35 28 0
1 -23 25 0
1 -23 -42 0
1 23 31 0
1 -23 -41 0
1 -23 28 0
1 -3 -43 0
1 -3 44 0
1 -3 -45 0
1 3 1 0
1 -43 4 0
1 43 46 0
1 43 -45 0
1 43 3 0
1 47 48 0
1 -47 49 0
1 47 -50 0
1 47 -44 0
1 -47 -45 0
1 47 5 0
1 51 -52 0
1 51 53 0
1 49 -54 0
1 -49 55 0
1 49 -51 0
1 -49 43 0
1 -49 -18 0
1 -49 -47 0
1 45 49 0
1 -45 56 0
1 -45 18 0
1 -45 -3 0
1 -48 -57 0
1 48 44 0
1 -44 -57 0
1 44 43 0
1 -44 58 0
1 44 -47 0
1 18 50 0
1 18 17 0
1 -18 -59 0
1 18 11 0
1 55 -22 0
1 -20 60 0
1 -20 -61 0
1 -20 62 0
1 -20 -16 0
1 -20 63 0
1 -20 -11 0
1 -19 50 0
1 -19 -62 0
1 19 -17 0
1 -19 53 0
1 19 20 0
1 19 64 0
1 19 -11 0
1 60 -65 0
1 -60 19 0
1 60 -51 0
1 -60 -32 0
1 -60 -47 0
1 63 34 0
1 63 12 0
1 -63 -60 0
1 63 -66 0
1 63 32 0
1 63 -47 0
1 -50 65 0
1 -50 -67 0
1 -50 51 0
1 50 68 0
1 53 -67 0
1 53 69 0
1 -53 50 0
1 53 -66 0
1 53 68 0
1 53 70 0
1 -14 -9 0
1 14 -60 0
1 -14 -17 0
1 -14 31 0
1 -14 7 0
1 12 9 0
1 12 25 0
1 -12 -60 0
1 12 -61 0
1 -12 -62 0
1 -12 -2 0
1 12 -63 0
1 12 71 0
1 12 -64 0
1 32 9 0
1 -32 -60 0
1 -32 -61 0
1 -32 -72 0
1 32 73 0
1 -32 30 0
1 -32 -68 0
1 32 71 0
1 32 74 0
1 34 37 0
1 -34 -60 0
1 -34 -72 0
1 34 -73 0
1 -62 -34 0
1 62 -12 0
1 62 75 0
1 62 -42 0
1 -62 -26 0
1 -62 -14 0
1 -62 76 0
1 -62 41 0
1 -62 -28 0
1 64 -12 0
1 -64 -75 0
1 -64 -32 0
1 64 14 0
1 64 76 0
1 -64 28 0
1 61 34 0
1 -61 -12 0
1 61 -77 0
1 61 66 0
1 -71 -19 0
1 -71 61 0
1 -71 78 0
1 71 -76 0
1 26 -21 0
1 -26 -73 0
1 -26 10 0
1 -26 -28 0
1 28 9 0
1 -28 -79 0
1 28 -23 0
1 28 62 0
1 28 74 0
1 -42 80 0
1 42 -23 0
1 -42 -78 0
1 -42 72 0
1 -42 -35 0
1 42 -74 0
1 41 79 0
1 41 29 0
1 41 62 0
1 41 33 0
1 41 27 0
1 41 -35 0
1 41 -74 0
1 -73 -79 0
1 -73 81 0
1 73 -82 0
1 73 32 0
1 -73 -83 0
1 -73 -28 0
1 -79 -84 0
1 79 81 0
1 79 85 0
1 -79 42 0
1 79 -26 0
1 79 -83 0
1 -79 -41 0
1 -79 -28 0
1 72 -81 0
1 72 86 0
1 -72 -75 0
1 72 -42 0
1 -72 -87 0
1 72 -88 0
1 -72 76 0
1 72 -41 0
1 -72 -28 0
1 -74 75 0
1 74 26 0
1 74 -32 0
1 -74 -89 0
1 -74 41 0
1 38 80 0
1 38 29 0
1 -38 33 0
1 38 27 0
1 -38 -35 0
1 38 36 0
1 -38 -40 0
1 -40 -23 0
1 -40 -38 0
1 40 -33 0
1 -85 -79 0
1 85 -83 0
1 85 90 0
1 85 86 0
1 -85 73 0
1 83 79 0
1 83 80 0
1 -83 -29 0
1 83 85 0
1 -83 -73 0
1 -83 91 0
1 27 -92 0
1 -27 -29 0
1 -27 93 0
1 -27 94 0
1 27 -95 0
1 -27 -96 0
1 -27 -83 0
1 -29 21 0
1 -29 -92 0
1 -29 97 0
1 29 93 0
1 -29 42 0
1 29 -94 0
1 29 -95 0
1 -29 98 0
1 -33 80 0
1 -33 -92 0
1 33 38 0
1 33 -99 0
1 33 41 0
1 -80 100 0
1 -80 -38 0
1 -80 42 0
1 80 94 0
1 80 -99 0
1 -80 -89 0
1 -93 -101 0
1 -93 -90 0
1 93 81 0
1 -93 91 0
1 -93 98 0
1 -98 29 0
1 98 90 0
1 102 -90 0
1 102 27 0
1 -102 39 0
1 95 -29 0
1 -95 -90 0
1 -95 -99 0
1 -95 -91 0
1 39 -103 0
1 -90 -104 0
1 -90 -102 0
1 -90 -98 0
1 -90 -83 0
1 91 -104 0
1 91 -103 0
1 91 -95 0
1 -91 -35 0
1 -91 98 0
1 91 83 0
1 -101 92 0
1 -101 105 0
1 -101 91 0
1 101 95 0
1 -106 -107 0
1 -46 -108 0
1 -46 109 0
1 110 109 0
1 110 47 0
1 52 -108 0
1 -52 111 0
1 52 112 0
1 52 110 0
1 109 52 0
1 -109 59 0
1 109 -110 0
1 109 -106 0
1 108 -113 0
1 -108 114 0
1 -108 -58 0
1 108 110 0
1 115 107 0
1 107 -115 0
1 -107 -106 0
1 59 -116 0
1 59 -18 0
1 59 -112 0
1 114 -111 0
1 114 112 0
1 -114 44 0
1 -114 59 0
1 -114 -117 0
1 58 48 0
1 58 -116 0
1 58 111 0
1 -58 118 0
1 -58 20 0
1 -58 -117 0
1 57 119 0
1 57 -19 0
1 57 108 0
1 57 -111 0
1 -57 120 0
1 -57 44 0
1 -117 114 0
1 -117 -111 0
1 117 121 0
1 117 68 0
1 117 58 0
1 111 121 0
1 -112 -121 0
1 112 58 0
1 -112 -59 0
1 112 122 0
1 -112 -110 0
1 116 -123 0
1 -116 -57 0
1 -116 -52 0
1 116 -112 0
1 116 -58 0
1 116 -59 0
1 -116 110 0
1 56 -119 0
1 -56 50 0
1 56 111 0
1 -56 -118 0
1 56 45 0
1 56 53 0
1 -56 117 0
1 56 -124 0
1 -69 119 0
1 69 49 0
1 -69 -111 0
1 -69 -44 0
1 -69 -53 0
1 69 -117 0
1 -69 124 0
1 -68 -67 0
1 68 125 0
1 68 50 0
1 -68 111 0
1 -68 118 0
1 68 -126 0
1 -68 -32 0
1 -68 -127 0
1 -68 53 0
1 67 125 0
1 -67 54 0
1 -67 126 0
1 -67 -68 0
1 119 -118 0
1 -119 68 0
1 -119 56 0
1 119 128 0
1 -118 119 0
1 118 -67 0
1 118 -57 0
1 -118 78 0
1 118 66 0
1 118 -68 0
1 118 56 0
1 118 -58 0
1 124 -67 0
1 124 -129 0
1 124 -57 0
1 -124 -130 0
1 -120 57 0
1 120 131 0
1 120 56 0
1 120 58 0
1 -120 124 0
1 -120 130 0
1 66 119 0
1 -66 -50 0
1 66 -60 0
1 66 -126 0
1 -66 127 0
1 66 53 0
1 -66 -71 0
1 65 -54 0
1 65 -61 0
1 -65 127 0
1 -65 -63 0
1 -65 -71 0
1 65 -28 0
1 -78 -54 0
1 78 -132 0
1 78 61 0
1 78 71 0
1 78 133 0
1 -133 -125 0
1 -133 -134 0
1 133 -78 0
1 133 118 0
1 -133 -135 0
1 -133 130 0
1 -54 67 0
1 -54 -136 0
1 54 137 0
1 -54 86 0
1 54 75 0
1 54 78 0
1 -54 -66 0
1 -54 -88 0
1 127 -54 0
1 127 -86 0
1 127 -68 0
1 -127 -76 0
1 -125 65 0
1 125 -138 0
1 -125 -139 0
1 125 -140 0
1 -125 -78 0
1 125 -141 0
1 -125 128 0
1 -125 133 0
1 126 67 0
1 -126 125 0
1 -126 137 0
1 -126 78 0
1 -126 66 0
1 126 -44 0
1 -126 -142 0
1 75 -132 0
1 -75 127 0
1 -75 71 0
1 75 -76 0
1 76 -54 0
1 76 64 0
1 76 62 0
1 -86 -85 0
1 86 -77 0
1 -86 72 0
1 -86 70 0
1 88 54 0
1 88 -72 0
1 -88 -70 0
1 88 143 0
1 -88 -141 0
1 88 -74 0
1 134 144 0
1 134 145 0
1 -134 -75 0
1 134 133 0
1 -135 -144 0
1 135 134 0
1 -135 -86 0
1 -135 78 0
1 -135 146 0
1 135 -63 0
1 -135 -89 0
1 -135 147 0
1 -135 -88 0
1 135 -76 0
1 132 144 0
1 -132 -148 0
1 132 149 0
1 132 -86 0
1 -132 -75 0
1 132 150 0
1 -132 76 0
1 70 -144 0
1 -70 146 0
1 70 151 0
1 -70 -76 0
1 -81 80 0
1 -81 -152 0
1 81 -73 0
1 -81 33 0
1 81 -143 0
1 -81 -153 0
1 81 -74 0
1 -89 79 0
1 -89 77 0
1 -89 -72 0
1 -89 153 0
1 100 -80 0
1 100 134 0
1 -100 77 0
1 -100 152 0
1 -100 -33 0
1 -100 -99 0
1 100 135 0
1 100 -143 0
1 -99 -84 0
1 99 -134 0
1 99 87 0
1 -99 33 0
1 -99 95 0
1 99 151 0
1 -99 153 0
1 152 154 0
1 -152 62 0
1 152 155 0
1 -152 -156 0
1 -152 -99 0
1 -152 89 0
1 152 -88 0
1 -153 92 0
1 153 -100 0
1 153 -86 0
1 153 -152 0
1 -153 -88 0
1 77 157 0
1 77 61 0
1 77 -86 0
1 77 158 0
1 77 -155 0
1 77 99 0
1 -143 144 0
1 -143 -81 0
1 143 77 0
1 143 159 0
1 143 -146 0
1 143 -99 0
1 -143 -89 0
1 -143 71 0
1 -143 160 0
1 92 -80 0
1 -92 -152 0
1 92 82 0
1 -92 -94 0
1 -92 -33 0
1 -92 27 0
1 -92 -153 0
1 94 92 0
1 -94 -29 0
1 -94 -152 0
1 -94 33 0
1 -154 161 0
1 154 -96 0
1 156 -84 0
1 156 -101 0
1 156 -162 0
1 -82 163 0
1 -82 -164 0
1 82 -99 0
1 84 104 0
1 -84 79 0
1 84 -154 0
1 84 163 0
1 84 -82 0
1 84 94 0
1 84 165 0
1 -87 92 0
1 87 163 0
1 87 -156 0
1 87 -99 0
1 87 165 0
1 166 167 0
1 -166 -163 0
1 -166 168 0
1 166 156 0
1 -166 -74 0
1 -104 -97 0
1 -104 -90 0
1 104 103 0
1 104 -162 0
1 -104 -39 0
1 -103 104 0
1 -103 -84 0
1 103 -101 0
1 -103 -155 0
1 -103 -162 0
1 -103 96 0
1 -103 -39 0
1 169 -161 0
1 -169 -162 0
1 164 84 0
1 164 -161 0
1 164 -168 0
1 -164 162 0
1 96 -104 0
1 -96 -170 0
1 -96 -27 0
1 -96 -171 0
1 97 164 0
1 -97 172 0
1 162 173 0
1 -162 -163 0
1 -162 -164 0
1 -162 -174 0
1 162 -169 0
1 161 154 0
1 -161 -163 0
1 161 -103 0
1 -161 -165 0
1 -171 97 0
1 -171 105 0
1 -171 175 0
1 -171 96 0
1 175 -97 0
1 175 -176 0
1 -175 -163 0
1 175 -177 0
1 172 178 0
1 170 -178 0
1 -170 -97 0
1 170 105 0
1 170 -96 0
1 -170 172 0
1 178 172 0
1 178 -171 0
1 -178 169 0
1 -176 164 0
1 -176 172 0
1 176 169 0
1 177 -105 0
1 -177 170 0
1 -177 -172 0
1 -177 171 0
1 -177 -169 0
1 105 177 0
1 -105 -172 0
1 -105 -169 0
1 121 -123 0
1 -121 -116 0
1 121 -66 0
1 -121 112 0
1 123 65 0
1 123 -113 0
1 123 -111 0
1 -123 -120 0
1 -123 -179 0
1 -123 -117 0
1 -123 -124 0
1 -180 -78 0
1 -180 -179 0
1 -180 -181 0
1 180 -182 0
1 -180 -124 0
1 -130 113 0
1 -130 183 0
1 130 -181 0
1 130 122 0
1 -130 -182 0
1 -130 -124 0
1 130 133 0
1 -181 -113 0
1 -181 -184 0
1 -181 -121 0
1 -181 -128 0
1 113 -140 0
1 -113 181 0
1 113 128 0
1 113 130 0
1 179 -123 0
1 -179 185 0
1 -179 180 0
1 -179 121 0
1 185 -130 0
1 140 -119 0
1 140 -186 0
1 140 -75 0
1 140 181 0
1 -140 182 0
1 -140 -124 0
1 128 124 0
1 -128 -125 0
1 -128 113 0
1 -128 -183 0
1 -128 120 0
1 128 -118 0
1 -128 126 0
1 -128 -182 0
1 139 113 0
1 139 -183 0
1 -139 -131 0
1 139 -187 0
1 139 122 0
1 -139 182 0
1 -141 -188 0
1 -141 125 0
1 -141 131 0
1 141 -181 0
1 141 182 0
1 141 -129 0
1 182 -189 0
1 182 -137 0
1 182 186 0
1 182 -150 0
1 -182 -141 0
1 182 190 0
1 186 189 0
1 186 137 0
1 186 191 0
1 -122 191 0
1 122 -141 0
1 122 -192 0
1 122 128 0
1 183 189 0
1 183 193 0
1 -183 140 0
1 183 191 0
1 -183 -128 0
1 -183 -130 0
1 -137 -125 0
1 -137 -131 0
1 137 126 0
1 -137 -70 0
1 137 182 0
1 137 -129 0
1 -150 -188 0
1 -150 -125 0
1 -150 -132 0
1 150 131 0
1 150 127 0
1 150 70 0
1 -150 -89 0
1 150 -182 0
1 -148 136 0
1 -148 -132 0
1 -148 -100 0
1 -148 131 0
1 -148 187 0
1 -148 129 0
1 151 -188 0
1 151 -138 0
1 151 -186 0
1 -151 -131 0
1 -151 -70 0
1 -151 99 0
1 -151 -182 0
1 -151 -129 0
1 -188 -194 0
1 188 148 0
1 -188 187 0
1 -188 195 0
1 188 146 0
1 -188 -141 0
1 -187 -188 0
1 -187 -194 0
1 187 137 0
1 187 139 0
1 187 118 0
1 -187 -151 0
1 187 150 0
1 129 -194 0
1 129 -196 0
1 129 148 0
1 129 137 0
1 -129 131 0
1 -129 195 0
1 -129 197 0
1 -129 -191 0
1 129 -124 0
1 -131 -189 0
1 -131 148 0
1 -131 120 0
1 -131 198 0
1 -131 195 0
1 -131 -150 0
1 -144 92 0
1 -144 189 0
1 -144 132 0
1 -144 136 0
1 144 -77 0
1 -144 187 0
1 -144 142 0
1 -144 135 0
1 -146 -144 0
1 -146 136 0
1 146 -134 0
1 146 -187 0
1 -146 -199 0
1 -146 -143 0
1 157 188 0
1 157 196 0
1 -157 138 0
1 -157 -149 0
1 157 77 0
1 157 -142 0
1 -157 147 0
1 159 188 0
1 -159 -157 0
1 159 -77 0
1 159 187 0
1 159 -156 0
1 -159 197 0
1 -159 143 0
1 136 148 0
1 136 -200 0
1 -136 168 0
1 -136 -155 0
1 -136 -159 0
1 -136 -199 0
1 -136 201 0
1 199 157 0
1 -199 148 0
1 -199 -200 0
1 -199 168 0
1 199 -127 0
1 199 -151 0
1 199 -201 0
1 -138 -202 0
1 -138 -125 0
1 138 -144 0
1 -138 148 0
1 -138 -151 0
1 142 -202 0
1 142 -138 0
1 -142 144 0
1 -142 148 0
1 -142 -200 0
1 142 -126 0
1 167 104 0
1 167 -136 0
1 -167 -149 0
1 167 152 0
1 -167 153 0
1 -155 152 0
1 -155 -103 0
1 155 -199 0
1 -155 -143 0
1 -155 166 0
1 201 149 0
1 -201 -158 0
1 201 -168 0
1 -201 87 0
1 201 -160 0
1 -201 166 0
1 -168 -201 0
1 -168 203 0
1 -168 204 0
1 -145 -168 0
1 -145 174 0
1 -145 -165 0
1 -145 -201 0
1 147 -157 0
1 -147 -173 0
1 147 168 0
1 147 159 0
1 147 -135 0
1 -147 -174 0
1 -147 201 0
1 -149 -167 0
1 -149 -157 0
1 -149 205 0
1 149 201 0
1 203 157 0
1 203 -149 0
1 -203 200 0
1 203 -159 0
1 -203 205 0
1 165 84 0
1 165 145 0
1 -165 206 0
1 165 87 0
1 -165 147 0
1 165 171 0
1 163 175 0
1 163 -82 0
1 163 -162 0
1 -163 204 0
1 174 161 0
1 174 145 0
1 174 -158 0
1 -174 -206 0
1 174 162 0
1 173 161 0
1 173 170 0
1 173 -158 0
1 -173 -206 0
1 173 -162 0
1 -173 147 0
1 -206 152 0
1 206 174 0
1 -206 165 0
1 206 -201 0
1 204 168 0
1 158 -173 0
1 -158 -168 0
1 158 160 0
1 -158 174 0
1 158 -201 0
1 160 -173 0
1 160 -158 0
1 160 -168 0
1 160 -143 0
1 -160 174 0
1 189 -144 0
1 189 -184 0
1 189 122 0
1 -189 -182 0
1 191 -131 0
1 191 -182 0
1 191 129 0
1 196 157 0
1 196 -207 0
1 196 131 0
1 -196 197 0
1 196 -208 0
1 196 184 0
1 -196 -190 0
1 196 129 0
1 197 -209 0
1 -197 -193 0
1 197 207 0
1 -197 159 0
1 -197 -190 0
1 184 194 0
1 -184 -195 0
1 184 -197 0
1 -184 191 0
1 -209 -202 0
1 209 194 0
1 -209 189 0
1 -209 -210 0
1 209 -195 0
1 209 184 0
1 -211 197 0
1 194 167 0
1 194 -138 0
1 -194 193 0
1 194 -131 0
1 194 -187 0
1 -194 -195 0
1 194 184 0
1 -194 -129 0
1 195 -193 0
1 -195 -131 0
1 -195 155 0
1 -195 142 0
1 -202 -212 0
1 -202 -209 0
1 202 -213 0
1 -202 192 0
1 -202 190 0
1 -210 -212 0
1 210 -138 0
1 -210 -209 0
1 210 168 0
1 210 184 0
1 -210 -192 0
1 -190 -202 0
1 190 -194 0
1 -190 195 0
1 207 -194 0
1 207 214 0
1 207 197 0
1 207 190 0
1 -192 194 0
1 192 -193 0
1 -193 -194 0
1 193 197 0
1 -193 192 0
1 200 149 0
1 -200 207 0
1 205 -198 0
1 -205 -190 0
1 -214 -215 0
1 214 149 0
1 214 173 0
1 214 207 0
1 214 198 0
1 215 -188 0
1 -215 -214 0
1 -213 -202 0
1 -213 -200 0
1 213 210 0
1 212 205 0
1 212 -129 0
1 -198 -212 0
1 -198 -131 0
